




































































































5 59 63 52 36 71 
9 39 19 11 43 
7 42 38 34 6 2 
64 24 65 72 37 75 
14 70 17 28 20 
1 45 62 57 60 
33 66 8 4 29 18 
32 44 25 31 46 15 
26 3 23 49 40 53 
56 68 61 27 54 13 
30 74 73 21 35 
10 47 16 51 67 41 
76 12 69 50 58 0 
48 22 55 
